* ENCODING=ISO-8859-1
NAME          CPLEX
ROWS
 N  obj1    
 G  c1      
 G  c2      
 G  c3      
 G  c4      
 G  c5      
 G  c6      
 G  c7      
 G  c8      
 G  c9      
 G  c10     
 G  c11     
 G  c12     
 G  c13     
 G  c14     
 G  c15     
 G  c16     
 G  c17     
 G  c18     
 G  c19     
 G  c20     
 G  c21     
 G  c22     
 G  c23     
 G  c24     
 G  c25     
 G  c26     
 G  c27     
 G  c28     
 G  c29     
 G  c30     
COLUMNS
    MARK0000  'MARKER'                 'INTORG'
    x1        obj1                            1
    x1        c20                           936
    x1        c29                           907
    x2        obj1                            1
    x2        c10                           269
    x2        c25                           796
    x3        obj1                            1
    x3        c15                           611
    x3        c20                           937
    x3        c25                           345
    x4        obj1                            1
    x4        c1                            183
    x4        c16                           774
    x5        obj1                            1
    x5        c20                           719
    x5        c23                           232
    x6        obj1                            1
    x6        c12                           188
    x6        c23                           897
    x7        obj1                            1
    x7        c10                           649
    x8        obj1                            1
    x8        c21                           805
    x9        obj1                            1
    x9        c25                           745
    x10       obj1                            1
    x10       c7                            411
    x10       c10                           161
    x10       c19                           702
    x10       c24                           202
    x10       c28                           117
    x11       obj1                            1
    x11       c6                            451
    x11       c13                           886
    x12       obj1                            1
    x12       c1                            640
    x12       c6                            316
    x12       c12                           998
    x12       c16                           822
    x12       c27                           400
    x13       obj1                            1
    x13       c30                           871
    x14       obj1                            1
    x14       c6                            353
    x14       c8                            493
    x14       c17                           454
    x15       obj1                            1
    x15       c21                           772
    x15       c28                           288
    x16       obj1                            1
    x16       c18                           288
    x16       c19                           449
    x16       c24                           698
    x17       obj1                            1
    x17       c11                           191
    x17       c14                           176
    x17       c17                           283
    x17       c20                           268
    x17       c25                           744
    x18       obj1                            1
    x18       c6                            421
    x18       c8                            883
    x18       c16                           712
    x19       obj1                            1
    x19       c6                            644
    x19       c22                           689
    x19       c24                           242
    x19       c26                           208
    x20       obj1                            1
    x20       c17                           596
    x20       c29                           912
    x21       obj1                            1
    x21       c21                           896
    x22       obj1                            1
    x22       c8                            273
    x22       c9                            131
    x22       c10                           522
    x22       c18                           420
    x22       c20                           266
    x23       obj1                            1
    x23       c10                           506
    x23       c11                           867
    x23       c13                           231
    x23       c24                           912
    x24       obj1                            1
    x24       c11                           612
    x25       obj1                            1
    x25       c6                            393
    x25       c12                           957
    x26       obj1                            1
    x26       c1                            328
    x26       c2                            859
    x26       c5                            350
    x26       c8                            218
    x26       c12                           681
    x26       c28                           994
    x27       obj1                            1
    x27       c15                           220
    x28       obj1                            1
    x28       c3                            788
    x28       c10                           501
    x28       c13                           936
    x28       c26                           213
    x29       obj1                            1
    x29       c15                           203
    x29       c20                           506
    x29       c26                           802
    x30       obj1                            1
    x30       c4                            432
    x30       c13                           966
    x30       c14                           912
    x30       c26                           605
    x30       c30                           758
    x31       obj1                            1
    x32       obj1                            1
    x33       obj1                            1
    x33       c3                            923
    x34       obj1                            1
    x34       c8                            112
    x34       c19                           745
    x34       c21                           546
    x34       c25                           559
    x35       obj1                            1
    x35       c8                            451
    x35       c13                           316
    x35       c24                           587
    x36       obj1                            1
    x37       obj1                            1
    x37       c3                            752
    x37       c4                            684
    x37       c14                           516
    x37       c19                           130
    x37       c28                           285
    x38       obj1                            1
    x38       c2                            414
    x38       c27                           509
    x38       c28                           558
    x39       obj1                            1
    x39       c9                            622
    x39       c20                           628
    x39       c26                           135
    x40       obj1                            1
    x40       c12                           328
    x40       c15                           510
    x40       c28                           121
    x41       obj1                            1
    x41       c1                            340
    x41       c3                            266
    x41       c8                            334
    x41       c11                           579
    x41       c24                           375
    x41       c29                           913
    x42       obj1                            1
    x42       c4                            230
    x42       c9                            449
    x42       c16                           458
    x42       c19                           659
    x42       c24                           160
    x42       c28                           485
    x43       obj1                            1
    x43       c5                            122
    x43       c10                           460
    x43       c13                           439
    x43       c15                           899
    x43       c25                           548
    x43       c30                           407
    x44       obj1                            1
    x44       c18                           559
    x44       c24                           206
    x45       obj1                            1
    x45       c7                            288
    x45       c14                           954
    x45       c16                           421
    x45       c17                           663
    x45       c19                           364
    x46       obj1                            1
    x46       c8                            363
    x46       c13                           996
    x46       c30                           231
    x47       obj1                            1
    x47       c8                            343
    x47       c12                           781
    x47       c28                           887
    x47       c30                           740
    x48       obj1                            1
    x48       c1                            139
    x48       c12                           601
    x48       c25                           634
    x49       obj1                            1
    x49       c2                            232
    x49       c16                           734
    x49       c18                           790
    x49       c20                           667
    x50       obj1                            1
    x50       c3                            438
    x50       c19                           830
    x50       c22                           524
    x50       c27                           433
    x51       obj1                            1
    x51       c6                            429
    x51       c12                           643
    x51       c14                           811
    x51       c18                           744
    x52       obj1                            1
    x52       c13                           801
    x52       c18                           952
    x52       c25                           360
    x53       obj1                            1
    x53       c7                            678
    x53       c23                           900
    x54       obj1                            1
    x54       c3                            520
    x55       obj1                            1
    x55       c4                            925
    x55       c21                           377
    x56       obj1                            1
    x56       c3                            187
    x56       c6                            673
    x56       c19                           478
    x57       obj1                            1
    x57       c11                           334
    x57       c23                           710
    x58       obj1                            1
    x58       c1                            592
    x58       c2                            198
    x58       c5                            554
    x58       c12                           638
    x58       c13                           269
    x58       c28                           287
    x59       obj1                            1
    x59       c4                            856
    x59       c22                           849
    x60       obj1                            1
    x60       c15                           798
    MARK0001  'MARKER'                 'INTEND'
RHS
    rhs       c1                           1111
    rhs       c2                            852
    rhs       c3                           1937
    rhs       c4                           1564
    rhs       c5                            513
    rhs       c6                           1840
    rhs       c7                            689
    rhs       c8                           1735
    rhs       c9                            601
    rhs       c10                          1534
    rhs       c11                          1292
    rhs       c12                          2908
    rhs       c13                          2920
    rhs       c14                          1685
    rhs       c15                          1621
    rhs       c16                          1961
    rhs       c17                           998
    rhs       c18                          1877
    rhs       c19                          2179
    rhs       c20                          2464
    rhs       c21                          1698
    rhs       c22                          1031
    rhs       c23                          1370
    rhs       c24                          1691
    rhs       c25                          2366
    rhs       c26                           982
    rhs       c27                           671
    rhs       c28                          2011
    rhs       c29                          1366
    rhs       c30                          1504
BOUNDS
 LI bnd       x1        0
 LI bnd       x2        0
 LI bnd       x3        0
 LI bnd       x4        0
 LI bnd       x5        0
 LI bnd       x6        0
 LI bnd       x7        0
 LI bnd       x8        0
 LI bnd       x9        0
 LI bnd       x10       0
 LI bnd       x11       0
 LI bnd       x12       0
 LI bnd       x13       0
 LI bnd       x14       0
 LI bnd       x15       0
 LI bnd       x16       0
 LI bnd       x17       0
 LI bnd       x18       0
 LI bnd       x19       0
 LI bnd       x20       0
 LI bnd       x21       0
 LI bnd       x22       0
 LI bnd       x23       0
 LI bnd       x24       0
 LI bnd       x25       0
 LI bnd       x26       0
 LI bnd       x27       0
 LI bnd       x28       0
 LI bnd       x29       0
 LI bnd       x30       0
 LI bnd       x31       0
 LI bnd       x32       0
 LI bnd       x33       0
 LI bnd       x34       0
 LI bnd       x35       0
 LI bnd       x36       0
 LI bnd       x37       0
 LI bnd       x38       0
 LI bnd       x39       0
 LI bnd       x40       0
 LI bnd       x41       0
 LI bnd       x42       0
 LI bnd       x43       0
 LI bnd       x44       0
 LI bnd       x45       0
 LI bnd       x46       0
 LI bnd       x47       0
 LI bnd       x48       0
 LI bnd       x49       0
 LI bnd       x50       0
 LI bnd       x51       0
 LI bnd       x52       0
 LI bnd       x53       0
 LI bnd       x54       0
 LI bnd       x55       0
 LI bnd       x56       0
 LI bnd       x57       0
 LI bnd       x58       0
 LI bnd       x59       0
 LI bnd       x60       0
ENDATA
